(set-info :status unsat)
(declare-datatypes ((T 0)) ((
  (f0)
  (f1 (proj0f1 T))
  (f2 (proj0f2 T) (proj1f2 T) (proj2f2 T)))))
(assert (exists ((y14376 T) (y14377 T) (y14374 T) (y14375 T) (y14372 T) (y14373 T) (y14385 T) (y14383 T) (y14382 T) (y14381 T) (y14380 T) (y14387 T) (y14386 T) (y14378 T) (y14379 T)) (forall ((x14397 T) (x14396 T) (x14394 T) (x14393 T) (x14392 T) (x14390 T)) 
  (or 
    (and (= x14390 (f2 y14372 (f2 (f2 (f2 (f2 x14393 x14393 x14393) (f1 x14393) x14393) (f1 (f1 x14393)) (f1 (f2 x14393 x14393 x14393))) (f1 (f2 (f2 x14393 x14393 x14393) (f2 x14393 x14393 x14393) (f1 x14393))) x14393) (f1 (f2 x14393 x14393 x14393)))) (= y14372 (f2 y14373 (f1 (f1 (f2 x14393 x14393 x14393))) (f1 x14393))) (= y14373 (f1 y14374)) (= y14374 (f2 y14375 (f2 x14393 x14393 x14393) (f1 x14393))) (= y14375 (f2 x14390 x14393 x14393))) 
    (and (= y14376 (f2 (f2 (f2 (f1 y14377) (f1 (f2 x14393 x14393 x14393)) (f2 (f1 x14393) x14393 (f1 x14393))) (f1 x14393) (f1 (f2 x14393 x14393 x14393))) x14393 x14393)) (= y14377 x14392)) 
    (and (= y14378 (f1 y14379)) (= y14379 (f1 y14378))) (= y14380 x14397) 
    (and (= y14381 (f1 y14382)) (= y14382 (f2 y14383 (f1 x14393) x14393)) (= y14383 (f2 (f1 (f2 y14381 x14393 x14393)) x14396 (f2 (f1 x14393) (f2 x14393 x14393 x14393) x14393))) (= x14396 (f1 y14385)) (= y14385 (f2 y14381 y14381 x14393))) 
    (and (= y14386 x14394) (= y14387 (f2 y14386 x14393 x14393)))))))
(check-sat)
